tsp_instances/TSP20/instance15.tsp
NODE_COORD_SECTION
0 196 100
1 123 56
2 42 10
3 49 187
4 115 135
5 174 117
6 85 49
7 173 42
8 107 182
9 148 93
10 124 16
11 156 117
12 51 102
13 152 34
14 146 199
15 61 129
16 115 85
17 196 57
18 3 117
19 7 71
