tsp_instances/TSP20/instance15.opt.tour
TOUR_SECTION
1
6
12
10
17
5
15
9
4
16
13
19
20
3
7
2
11
14
8
18
-1